p cnf 24 18
-1 2 -3 0
2 -3 -4 0
3 -4 5 0
-4 5 6 0
5 6 -7 0
6 -7 23 0
-8 9 -10 0
-8 9 22 0
-8 -10 23 0
11 -12 -13 0
11 -13 -22 0
11 -20 21 0
11 21 -22 0
14 -15 24 0
14 16 -17 0
-15 16 -17 0
16 -17 20 0
18 -19 21 0
